502 0 329 497 658
147 58 742 345 249
0 325 412 671 533
616 412 585 0 764
360 505 62 601 852
696 800 616 133 167
511 147 696 889 345
852 433 0 167 716
244 710 826 422 572
566 822 110 502 420
308 893 713 533 440
400 554 177 764 757
757 647 247 214 751
667 238 493 841 622
631 950 549 57 837
